Solver command line: ['C:\\Program Files\\IBM\\ILOG\\CPLEX_Studio221\\cplex\\bin\\x64_win64\\cplex.exe']


Welcome to IBM(R) ILOG(R) CPLEX(R) Interactive Optimizer 22.1.0.0
  with Simplex, Mixed Integer & Barrier Optimizers
5725-A06 5725-A29 5724-Y48 5724-Y49 5724-Y54 5724-Y55 5655-Y21
Copyright IBM Corp. 1988, 2022.  All Rights Reserved.

Type 'help' for a list of available commands.
Type 'help' followed by a command name for more
information on commands.

CPLEX> Logfile 'cplex.log' closed.
Logfile 'data\30_bus\3_trips_per_bus\3_6_3\step2_12.log' open.
CPLEX> New value for mixed integer solutions limit: 1
CPLEX> New value for time limit in seconds: 500
CPLEX> New value for default parallel thread count: 1
CPLEX> Problem 'C:\Users\Mathis\AppData\Local\Temp\tmpvrzixyex.pyomo.lp' read.
Read time = 0.08 sec. (8.55 ticks)
CPLEX> Problem name         : C:\Users\Mathis\AppData\Local\Temp\tmpvrzixyex.pyomo.lp
Objective sense      : Minimize
Variables            :   59398  [Nneg: 13172,  Binary: 46226]
Objective nonzeros   :       1
Linear constraints   :   60269  [Less: 58468,  Greater: 300,  Equal: 1501]
  Nonzeros           :  314294
  RHS nonzeros       :   47968

Variables            : Min LB: 0.000000         Max UB: 1.000000       
Objective nonzeros   : Min   : 1.149978e+07     Max   : 1.149978e+07   
Linear constraints   :
  Nonzeros           : Min   : 0.2192982        Max   : 10000.00       
  RHS nonzeros       : Min   : 1.000000         Max   : 10000.00       
CPLEX> Version identifier: 22.1.0.0 | 2022-03-09 | 1a383f8ce
CPXPARAM_Threads                                 1
CPXPARAM_MIP_Limits_Solutions                    1
CPXPARAM_TimeLimit                               500
Tried aggregator 2 times.
MIP Presolve eliminated 49748 rows and 30532 columns.
MIP Presolve modified 43880 coefficients.
Aggregator did 460 substitutions.
Reduced MIP has 10061 rows, 28406 columns, and 90261 nonzeros.
Reduced MIP has 27675 binaries, 0 generals, 0 SOSs, and 0 indicators.
Presolve time = 0.16 sec. (148.32 ticks)
Probing time = 0.02 sec. (9.33 ticks)
Tried aggregator 2 times.
Detecting symmetries...
Aggregator did 3 substitutions.
Reduced MIP has 10058 rows, 28403 columns, and 90255 nonzeros.
Reduced MIP has 27675 binaries, 0 generals, 0 SOSs, and 0 indicators.
Presolve time = 0.06 sec. (77.77 ticks)
Probing time = 0.01 sec. (9.28 ticks)
Clique table members: 2662.
MIP emphasis: balance optimality and feasibility.
MIP search method: dynamic search.
Parallel mode: none, using 1 thread.
Root relaxation solution time = 0.09 sec. (158.42 ticks)

        Nodes                                         Cuts/
   Node  Left     Objective  IInf  Best Integer    Best Bound    ItCnt     Gap

      0     0   1.14998e+07   721                 1.14998e+07     2025         
      0     0   1.14998e+07   369                    Cuts: 74     3573         
      0     0   1.14998e+07   489                  Cuts: 1483     4767         
      0     0   1.14998e+07   324                    Cuts: 95     6039         
      0     0   1.14998e+07   456                  Cuts: 1160     7393         
      0     2   1.14998e+07   131                 1.14998e+07     7393         
Elapsed time = 6.70 sec. (11330.64 ticks, tree = 0.01 MB, solutions = 0)
     10    12   1.14998e+07   181                 1.14998e+07     8118         
     19    21   1.14998e+07   213                 1.14998e+07     9168         
     23    25   1.14998e+07   182                 1.14998e+07     9347         
     40    42   1.14998e+07   189                 1.14998e+07    10116         
     53    55   1.14998e+07   194                 1.14998e+07    10990         
     60    62   1.14998e+07   183                 1.14998e+07    11372         
     76    78   1.14998e+07   210                 1.14998e+07    12401         
     80    82   1.14998e+07   209                 1.14998e+07    13334         
     97    99   1.14998e+07   228                 1.14998e+07    14257         
    121   123   1.14998e+07   187                 1.14998e+07    15817         
Elapsed time = 8.38 sec. (15119.81 ticks, tree = 1.85 MB, solutions = 0)
    170   166   1.14998e+07   197                 1.14998e+07    17790         
    244   218   1.14998e+07   186                 1.14998e+07    20783         
    293   255    infeasible                       1.14998e+07    23257         
*   340+    1                       1.14998e+07   1.14998e+07             0.00%

Clique cuts applied:  4
Implied bound cuts applied:  651
Flow cuts applied:  15
Mixed integer rounding cuts applied:  244
Multi commodity flow cuts applied:  17
Lift and project cuts applied:  2
Gomory fractional cuts applied:  6

Root node processing (before b&c):
  Real time             =    6.66 sec. (11288.28 ticks)
Sequential b&c:
  Real time             =    3.31 sec. (7309.15 ticks)
                          ------------
Total (root+branch&cut) =    9.97 sec. (18597.43 ticks)

Solution pool: 1 solution saved.

MIP - Integer optimal solution:  Objective =  1.1499783000e+07
Solution time =    9.97 sec.  Iterations = 24603  Nodes = 340
Deterministic time = 18597.60 ticks  (1865.73 ticks/sec)

CPLEX> Incumbent solution written to file 'C:\Users\Mathis\AppData\Local\Temp\tmpfcgx2kyy.cplex.sol'.
CPLEX> 
